c turning on binary mode checking
c parsing input formula with 259840 variables and 1039934 clauses
c finished parsing, read 3190072 bytes from proof file
c detected empty clause; start verification via backward checking
c 9056 of 1039934 clauses in core                            
c 3074 of 121810 lemmas in core using 108846 resolution steps
c 0 RAT lemmas in core; 684 redundant literals in core lemmas
s VERIFIED
c verification time: 1.928 seconds
